p tw 101 108
1 2
2 14
3 5
5 6
6 7
7 8
7 29
8 9
9 10
10 11
11 12
12 13
13 15
14 25
15 16
16 17
17 18
18 19
19 20
20 21
20 22
21 22
22 23
23 24
24 26
25 36
26 27
27 28
28 45
29 30
30 31
31 32
32 33
33 34
34 35
34 43
35 37
36 47
37 38
38 39
39 40
40 41
41 42
42 32
43 44
44 45
45 46
46 48
47 58
48 49
49 50
50 51
50 77
51 52
52 53
53 54
54 55
54 56
55 56
56 57
57 59
58 69
58 5
59 60
60 61
61 62
62 63
63 64
63 65
64 101
65 66
66 67
67 68
68 70
69 80
70 71
71 72
72 73
73 74
74 75
75 76
76 99
77 78
78 79
79 81
79 94
80 91
81 82
82 83
83 84
84 85
85 86
86 87
87 88
88 89
89 90
90 92
91 3
92 93
93 99
94 95
95 96
96 97
97 98
98 99
99 100
100 101
101 4
